sat
(model
  (define-fun |repeat$unknown:5|
    ( (v_0 Int) (v_1 Int) (v_2 Int) ) Bool
    (or (not (= v_1 0)) (= (+ v_0 (* (- 1) v_2)) 0))
  )
  (define-fun |repeat$unknown:2|
    ( (v_0 Int) (v_1 Int) ) Bool
    (= (+ v_0 (- 1) (* (- 1) v_1)) 0)
  )
  (define-fun |succ$unknown:7|
    ( (v_0 Int) (v_1 Int) ) Bool
    (= (+ v_0 (- 1) (* (- 1) v_1)) 0)
  )
)
